variable 	thermo_print equal 200
variable	total_step equal ${thermo_print}*100
units		real
boundary	p p p
neighbor        2.0 bin
neigh_modify    delay 10 every 1
atom_style	full
bond_style      harmonic
angle_style     harmonic
dihedral_style  harmonic
pair_style      lj/cut/coul/long 10.0
pair_modify     mix arithmetic
kspace_style    pppm 1e-4
read_data       ../data.begin
replicate	2 2 2
fix             microcanonical all nve
timestep	1
thermo          ${thermo_print}
restart		${total_step} medium
run             ${total_step}
write_data	data.medium


