start test 
 title "NREL DFT Benchmark" 

scratch_dir /tmp/scratch

 geometry units angstrom
 
C          1.46598       -0.93726        0.09469
N          2.67451       -1.29439        0.61529
C          3.05587       -2.57262        0.22739
C          2.05626       -3.03990       -0.56299
N          1.10197       -2.03301       -0.62707
C          3.45974       -0.42940        1.48295
C         -0.13419       -2.12823       -1.39987
O         -0.01329        1.41362        0.35928
C          0.54312        2.33873       -0.56227
C          1.20409        3.49048        0.18714
O          1.72523        4.39821       -0.77867
H          1.28578        1.85204       -1.21150
H          3.98038       -3.03093        0.54543
H          1.94131       -3.98526       -1.07190
H          2.89203        0.48700        1.64664
H          3.64388       -0.91559        2.44665
H          4.42022       -0.18245        1.01825
H         -0.81380       -1.32562       -1.10270
H          0.07871       -2.04757       -2.47140
H         -0.61334       -3.09295       -1.20593
H          1.99899        3.09040        0.83942
H          0.45463        3.96805        0.83693
H         -0.24771        2.74010       -1.20892
H          2.05592        5.17698       -0.30775
H          0.54450        0.56104        0.32382
H         -1.53591        0.77419       -0.19747
O         -2.32641        0.29903       -0.55569
C         -3.23266        0.09258        0.51136
C         -4.51206       -0.48668       -0.07211
H         -2.83834       -0.60685        1.26689
H         -3.47352        1.03232        1.03197
O         -5.41149       -0.72647        1.00649
H         -4.92702        0.22641       -0.80101
H         -4.27059       -1.41474       -0.61491
H         -6.24070       -1.05609        0.63083
 end  
 basis  
  * library aug-cc-pvtz  
 end
 dft  
  xc b3lyp
  direct
 end 
driver
 maxiter 1
end
 task dft optimize ignore

